59187
58781
58097
61000
58092
58824
58704
58936
59387
59208
110913
108717
108932
110086
108485
110845
106077
106686
109829
106723
151809
148772
151909
151324
151966
152109
153131
153578
149160
149704
